c --- [ banner ] -------------------------------------------------------------
c 
c CaDiCaL Radically Simplified CDCL SAT Solver
c Copyright (c) 2016-2021 A. Biere, M. Fleury, N. Froleyks
c 
c Version 1.5.2 a5f15211db36c3956764e18194dd5bd63bf3b5e6
c g++ (GCC) 9.3.0 -Wall -Wextra -O3 -DNDEBUG
c Fri Oct 21 01:27:37 EDT 2022 Linux gra-login3 3.10.0-1160.66.1.el7.x86_64 x86_64
c 
c --- [ limit ] --------------------------------------------------------------
c 
c setting conflict limit to 200000 conflicts (due to '200000')
c 
c --- [ parsing input ] ------------------------------------------------------
c 
c reading DIMACS file from '33.cubes3089.adj'
c opening file to read '33.cubes3089.adj'
c found 'p cnf 6160 1595478' header
c parsed 1595478 clauses in 19.04 seconds process time
c closing file '33.cubes3089.adj'
c after reading 1457566797 bytes 1390.0 MB
c 
c --- [ options ] ------------------------------------------------------------
c 
c all options are set to their default value
c 
c --- [ solving ] ------------------------------------------------------------
c 
c time measured in process time since initialization
c 
c  seconds    reductions  redundant   irredundant
c          MB     restarts       trail       variables
c            level   conflicts       glue         remaining
c 
c * 19.04 1387  0 0   0    0    0  0% 0 1595422 2339 38%
c { 20.91 1472  0 0   0    0    0  0% 0 1595422 2339 38%
c i 22.49 1489 369 0   0   85   71 32% 7 1595422 2335 38%
c i 22.74 1492 309 0   1  104   84 31% 7 1595422 2334 38%
c i 23.14 1497 261 0   5  130  105 31% 13 1595422 2333 38%
c i 23.23 1498 235 0   9  150  116 30% 13 1595422 2332 38%
c i 23.62 1500 220 0  13  163  127 29% 14 1595422 2331 38%
c i 23.75 1500 213 0  14  168  131 29% 14 1595422 2330 38%
c i 23.78 1500 205 0  16  174  132 29% 13 1595422 2324 38%
c i 23.94 1501 200 0  17  178  131 28% 13 1595422 2323 38%
c i 24.67 1505 184 0  24  211  156 28% 18 1595422 2321 38%
c i 24.84 1506 184 0  26  217  161 28% 19 1595422 2310 38%
c i 24.85 1506 183 0  27  219  162 27% 19 1595422 2292 37%
c i 25.60 1508 170 0  34  243  181 27% 18 1595422 2291 37%
c i 26.46 1509 159 0  40  272  206 27% 18 1595422 2290 37%
c i 26.49 1509 159 0  40  273  206 27% 18 1595422 2289 37%
c - 30.69 1468 152 1  43  303  231 27% 19 309742 2289 37%
c i 31.02 1437 147 1  47  321  246 27% 20 309742 2288 37%
c i 31.35 1437 131 1  51  368  283 27% 19 309742 2287 37%
c i 31.62 1437 80 1  51  653  503 29% 16 309742 2286 37%
c 
c  seconds    reductions  redundant   irredundant
c          MB     restarts       trail       variables
c            level   conflicts       glue         remaining
c 
c i 31.67 1437 81 1  51  657  505 29% 16 309742 2285 37%
c i 31.80 1437 82 1  54  676  520 29% 18 309742 2284 37%
c i 32.61 1437 82 1  74  762  586 28% 20 309742 2282 37%
c i 32.70 1437 82 1  75  766  588 28% 20 309742 2281 37%
c i 33.36 1437 81 1  88  872  689 28% 20 309742 2280 37%
c i 33.58 1438 77 1  88  927  731 28% 19 309742 2279 37%
c i 33.60 1438 77 1  88  928  731 28% 19 309742 2278 37%
c i 33.62 1438 77 1  88  937  737 28% 19 309742 2277 37%
c i 33.62 1438 77 1  88  939  738 28% 19 309742 2276 37%
c i 33.72 1438 74 1  88  988  777 28% 19 309742 2275 37%
c } 33.75 1438 74 1  88 1002  790 28% 19 309742 2275 37%
c [ 33.75 1438  0 1  88 1002  790  0% 0 309742 2275 37%
c O 33.75 1438  1 1  88 1003  791 12% 1 309742 2275 37%
c i 33.95 1438 18 1  88 1016  802 33% 14 309742 2274 37%
c i 34.17 1438 18 1  88 1089  860 32% 15 309742 2273 37%
c - 34.94 1497 16 2  88 1199  861 31% 13 309702 2273 37%
c i 35.18 1497 18 2  88 1333  955 30% 15 309702 2272 37%
c i 35.33 1497 19 2  88 1578 1136 30% 16 309702 2271 37%
c - 36.12 1497 20 3  89 2542 1350 31% 17 309698 2271 37%
c ] 36.62 1496 19 3  89 3008 1603 52% 17 309698 2271 37%
c 
c  seconds    reductions  redundant   irredundant
c          MB     restarts       trail       variables
c            level   conflicts       glue         remaining
c 
c { 36.62 1496 74 3  89 3008 1603 77% 19 309698 2271 37%
c F 36.63 1496 73 3  89 3009 1604 77% 19 309698 2271 37%
c i 36.76 1496 72 3  89 3025 1618 76% 19 309698 2270 37%
c i 36.78 1496 72 3  89 3031 1622 76% 18 309698 2268 37%
c i 36.79 1496 72 3  89 3036 1626 76% 18 309698 2267 37%
c i 37.09 1496 69 3  97 3133 1712 74% 19 309698 2266 37%
c i 37.94 1496 65 3 121 3379 1883 69% 19 309698 2265 37%
c i 38.65 1496 68 3 161 3537 2017 66% 23 309698 2264 37%
c i 38.66 1496 68 3 162 3543 2020 66% 23 309698 2263 37%
c i 38.93 1496 64 3 198 3764 2172 64% 24 309698 2262 37%
c i 38.93 1496 64 3 198 3765 2172 64% 24 309698 2261 37%
c i 38.97 1496 63 3 198 3834 2224 63% 24 309698 2260 37%
c i 39.01 1496 61 3 198 3921 2291 63% 24 309698 2259 37%
c i 39.02 1496 60 3 198 3973 2320 63% 24 309698 2258 37%
c i 39.04 1496 60 3 198 4002 2334 62% 24 309698 2257 37%
c i 39.07 1496 58 3 198 4091 2392 62% 23 309698 2256 37%
c - 39.57 1493 55 4 199 4332 1847 60% 23 309665 2256 37%
c i 40.35 1493 57 4 237 4523 2008 59% 24 309665 2250 37%
c i 40.72 1493 57 4 252 4597 2070 59% 25 309665 2249 37%
c i 41.06 1493 57 4 275 4695 2151 58% 25 309665 2248 36%
c 
c  seconds    reductions  redundant   irredundant
c          MB     restarts       trail       variables
c            level   conflicts       glue         remaining
c 
c i 41.29 1493 57 4 286 4746 2195 58% 25 309665 2247 36%
c d 42.99 1493 56 4 304 5000 2409 57% 25 309572 2240 36%
c 2 43.07 1493 56 4 304 5000 3528 57% 25 309541 2224 36%
c p 48.70 1493 56 4 304 5000 6677 57% 25 309541 2136 35%
c d 49.17 1493 56 4 304 5000 6307 57% 25 260956 2130 35%
c # 50.66 1493 49 4 321 6012 7046 55% 23 260956 2130 35%
c - 51.44 1365 46 5 328 6572 2763 54% 23 260956 2130 35%
c } 51.82 1365 44 5 329 7009 3066 54% 23 260956 2130 35%
c [ 51.82 1365 19 5 329 7009 3066 52% 17 260956 2130 35%
c - 53.44 1365 23 6 330 9121 3091 50% 19 260956 2130 35%
c I 54.06 1365 24 6 331 10015 3727 50% 20 260956 2130 35%
c - 55.99 1365 27 7 333 12096 3780 51% 22 260956 2130 35%
c 2 57.26 1365 28 7 334 15000 7006 50% 24 260949 2130 35%
c p 58.98 1365 28 7 334 15000 10156 50% 24 260949 2130 35%
c ] 59.16 1365 28 7 334 15011 10163 50% 24 260949 2130 35%
c { 59.16 1365 44 7 334 15011 10163 54% 23 260949 2130 35%
c B 59.19 1365 44 7 334 15016 10167 54% 23 260949 2130 35%
c - 60.01 1365 43 8 354 15495 4448 54% 23 260949 2130 35%
c s 65.34 1366 37 8 552 18833 6648 51% 21 258998 2130 35%
c v 69.05 1366 37 8 552 18833 6648 51% 21 258937 2130 35%
c 
c  seconds    reductions   redundant   irredundant
c          MB     restarts        trail       variables
c            level    conflicts       glue         remaining
c 
c t 69.19 1366 37 8 552 18833 6635 51% 21 258917 2130 35%
c e 70.06 1367 37 8 552 18833 6091 51% 21 257037 949 15%
c s 70.18 1367 37 8 552 18833 6091 51% 21 255715 949 15%
c - 72.25 1367 36 9 571 19320 4615 62% 21 255715 949 15%
c W 75.72 1367 35 9 674 21019 5896 60% 21 255715 949 15%
c - 77.23 1367 33 10 720 23545 5216 62% 20 255715 949 15%
c F 81.32 1367 30 10 889 28022 8606 64% 19 255715 949 15%
c - 81.70 1367 30 11 889 28192 6370 64% 19 255715 949 15%
c d 83.52 1367 29 11 948 30000 7719 64% 19 235995 948 15%
c p 85.09 1367 29 11 948 30000 10906 64% 19 235995 947 15%
c } 85.88 1367 29 11 974 31013 11609 64% 19 235995 947 15%
c [ 85.88 1367 28 11 974 31013 11609 120% 24 235995 947 15%
c - 87.22 1367 27 12 974 33262 7075 108% 22 235992 947 15%
c B 88.72 1367 27 12 977 36025 9047 99% 22 235992 947 15%
c - 89.86 1367 27 13 978 38616 7659 93% 23 235992 947 15%
c - 91.82 1367 28 14 981 44382 8088 85% 24 235992 947 15%
c W 92.76 1367 28 14 981 45026 8544 84% 24 235992 947 15%
c p 95.30 1367 28 14 982 50000 15105 80% 24 235992 947 15%
c - 95.90 1367 28 15 982 50565 8345 80% 25 235992 947 15%
c s 96.23 1367 28 15 982 51129 8673 80% 25 234803 947 15%
c 
c  seconds     reductions    redundant   irredundant
c           MB      restarts        trail       variables
c             level     conflicts       glue        remaining
c 
c v 100.23 1366 28 15 982 51129 8673 80% 25 234735 947 15%
c t 100.41 1366 28 15 982 51129 8672 80% 25 234733 947 15%
c s 101.38 1367 28 15 982 51129 8669 80% 25 232937 947 15%
c O 103.63 1367 28 15 983 55028 11271 78% 25 232937 947 15%
c - 104.57 1367 28 16 985 57156 8405 77% 24 232937 947 15%
c ] 106.97 1367 27 16 989 63013 11915 75% 23 232937 947 15%
c { 106.97 1367 29 16 989 63013 11915 64% 19 232937 947 15%
c - 107.44 1367 28 17 994 64128 8322 64% 19 232937 947 15%
c B 108.13 1367 28 17 1000 66034 9469 65% 19 232937 947 15%
c - 112.72 1367 27 18 1291 71515 9483 64% 18 232937 947 15%
c p 116.42 1367 26 18 1411 75003 15555 64% 18 232937 947 15%
c W 118.76 1367 25 18 1463 78036 17516 64% 18 232937 947 15%
c - 120.07 1367 25 19 1564 79310 11022 64% 18 232937 947 15%
c } 120.63 1367 25 19 1564 80057 11506 64% 18 232937 947 15%
c 1 120.63 1367 25 19 1564 80057 11506 64% 18 232937 947 15%
c 
c --- [ writing output ] -----------------------------------------------------
c 
c writing simplified CNF to DIMACS file 'simp/33.cubes3089.adj.simp1'
c * 120.63 1367 25 19 1564 80057 11506 64% 18 232937 947 15%
c opening file to write 'simp/33.cubes3089.adj.simp1'
c writing 'p cnf 6160 232937' header
c closing file 'simp/33.cubes3089.adj.simp1'
c after writing 97767706 bytes 93.2 MB
c wrote 232937 clauses in 0.72 seconds process time
c 
c --- [ writing extension ] --------------------------------------------------
c 
c writing extension stack to 'simp/33.cubes3089.adj.ext1'
c opening file to write 'simp/33.cubes3089.adj.ext1'
c closing file 'simp/33.cubes3089.adj.ext1'
c after writing 82275 bytes 0.1 MB
c wrote 3711 witnesses in 0.00 seconds process time
c 
c --- [ result ] -------------------------------------------------------------
c 
s SATISFIABLE
c 
c --- [ run-time profiling ] -------------------------------------------------
c 
c process time taken by individual solving procedures
c (percentage relative to process time for solving)
c 
c        77.07   75.87% search
c        52.46   51.64% unstable
c        24.51   24.13% simplify
c        21.48   21.15% stable
c        19.04   18.74% parse
c        11.29   11.11% probe
c         7.96    7.84% vivify
c         3.19    3.14% elim
c         1.87    1.84% lucky
c         1.26    1.24% walk
c         0.57    0.56% subsume
c         0.20    0.20% ternary
c   =================================
c       101.58   83.71% solve
c 
c last line shows process time for solving
c (percentage relative to total process time)
c 
c --- [ statistics ] ---------------------------------------------------------
c 
c chronological:             14596        18.23 %  of conflicts
c conflicts:                 80057       788.08    per second
c decisions:                160641      1581.35    per second
c eliminated:                 1181        19.17 %  of all variables
c fixed:                       874        14.19 %  of all variables
c learned:                   78284        97.79 %  per conflict
c learned_lits:           13168882       100.00 %  learned literals
c minimized:                     0         0.00 %  learned literals
c shrunken:                7744044        58.81 %  learned literals
c minishrunken:            1241142         9.42 %  learned literals
c propagations:            6913114         0.07 M  per second
c reduced:                   43426        54.24 %  per conflict
c rephased:                     12      6671.42    interval
c restarts:                   1564        51.19    interval
c stabilizing:                   3        52.47 %  of conflicts
c substituted:                  14         0.23 %  of all variables
c subsumed:                  29718         0.87 %  of all clauses
c strengthened:              15141         0.44 %  of all clauses
c ternary:                    4866         0.76 %  of resolved
c vivified:                    161         0.00 %  of all clauses
c walked:                        3     26685.67    interval
c weakened:                   2837         3.13    average size
c 
c seconds are measured in process time for solving
c 
c --- [ resources ] ----------------------------------------------------------
c 
c total process time since initialization:       121.35    seconds
c total real time since initialization:          121.84    seconds
c maximum resident set size of process:         1628.62    MB
c 
c --- [ shutting down ] ------------------------------------------------------
c 
c exit 10
WARNING! DIMACS header mismatch: wrong number of variables.
============================[ Problem Statistics ]=============================
|                                                                             |
|  Number of variables:          4043                                         |
|  Number of clauses:          232945                                         |
|  Parse time:                   1.30 s                                       |
|  Simplification time:          0.04 s                                       |
|                                                                             |
============================[ Search Statistics ]====================================================
| Conflicts |          ORIGINAL         |          LEARNT          | Num Sols |      SUBGRAPHS      |
|           |    Vars  Clauses Literals |    Limit  Clauses Lit/Cl |          | Canonical Noncanon. |
=====================================================================================================
|       112 |    3950   232957 21124309 |     2000      112     98 |        0 |        18        12 |
|       285 |    3950   232980 21124655 |     2000      285     82 |        0 |        38        35 |
|       552 |    3950   233022 21125420 |     2000      552     79 |        0 |        64        77 |
|       954 |    3950   233087 21126498 |     2000      954     76 |        0 |        75       142 |
|      1685 |    3950   233312 21129705 |     2000     1685     65 |        0 |       163       367 |
|      2477 |    3950   233345 21130170 |     3601     1478     33 |        0 |       187       400 |
|      3893 |    3950   233622 21133920 |     3601     2894     45 |        0 |       327       677 |
|      5773 |    3950   233794 21136798 |     5005     2978     40 |        0 |       403       849 |
|      8561 |    3950   234020 21140601 |     6308     3269     29 |        0 |       498      1075 |
|     12958 |    3950   234573 21147871 |     7559     4517     35 |        0 |       662      1628 |
|     19208 |    3950   235057 21158116 |     8782     6990     43 |        0 |       829      2112 |
|     29795 |    3950   236995 21185923 |    11213     8208     40 |        0 |      1360      4050 |
|     44473 |    3950   238699 21211728 |    13616    11089     49 |        0 |      1882      5754 |
|     66616 |    3950   241381 21247957 |    17215    11031     35 |        0 |      2622      8436 |
|     97155 |    3950   242728 21267579 |    20812    13967     34 |        0 |      3049      9783 |
|    144419 |    3950   246203 21320162 |    25618    16037     31 |        0 |      4156     13258 |
|    214212 |    3924   250312 21375340 |    31611    15823     21 |        0 |      5212     17367 |
=====================================================================================================
Number of solutions   : 0
Canonical subgraphs   : 6494           (7 /sec)
          order  3    : 1              (inf /sec)
          order  4    : 1              (inf /sec)
          order  5    : 1              (inf /sec)
          order  6    : 1              (inf /sec)
          order  7    : 1              (inf /sec)
          order  8    : 2              (948 /sec)
          order  9    : 4              (205 /sec)
          order 10    : 12             (57 /sec)
          order 11    : 57             (17 /sec)
          order 12    : 349            (6 /sec)
          order 13    : 1563           (8 /sec)
          order 14    : 2762           (7 /sec)
          order 15    : 586            (4 /sec)
          order 16    : 1116           (9 /sec)
          order 17    : 24             (4 /sec)
          order 18    : 11             (6 /sec)
          order 19    : 3              (5 /sec)
          order 20    : 0              (-nan /sec)
          order 21    : 0              (-nan /sec)
          order 22    : 0              (-nan /sec)
Noncanonical subgraphs: 20607          (576 /sec)
          order  3    : 0              (-nan /sec)
          order  4    : 0              (-nan /sec)
          order  5    : 0              (-nan /sec)
          order  6    : 0              (-nan /sec)
          order  7    : 0              (-nan /sec)
          order  8    : 0              (-nan /sec)
          order  9    : 0              (-nan /sec)
          order 10    : 0              (-nan /sec)
          order 11    : 0              (-nan /sec)
          order 12    : 0              (-nan /sec)
          order 13    : 5760           (8732 /sec)
          order 14    : 5004           (6905 /sec)
          order 15    : 7987           (805 /sec)
          order 16    : 395            (356 /sec)
          order 17    : 1447           (63 /sec)
          order 18    : 6              (47 /sec)
          order 19    : 8              (56 /sec)
          order 20    : 0              (-nan /sec)
          order 21    : 0              (-nan /sec)
Canonicity checking   : 946.881 s
Noncanonicity checking: 35.7691 s
Total canonicity time : 982.65 s
database reductions   : 24
restarts              : 511
conflicts             : 226777         (214 /sec)
decisions             : 338675         (0.00 % random) (320 /sec)
propagations          : 13074990       (12351 /sec)
conflict literals     : 17964255       (53.31 % deleted)
actual reward         : 0.206643
Memory used           : 282.00 MB
CPU time              : 1058.64 s

UNSATISFIABLE
